WARNING: for repeatability, setting FPU to use double precision
============================[ Problem Statistics ]=============================
|                                                                             |
|  Number of variables:           100                                         |
|  Number of clauses:             449                                         |
|  Parse time:                   0.00 s                                       |
|  Eliminated clauses:           0.00 Mb                                      |
|  Simplification time:          0.00 s                                       |
|                                                                             |
============================[ Search Statistics ]==============================
| Conflicts |          ORIGINAL         |          LEARNT          | Progress |
|           |    Vars  Clauses Literals |    Limit  Clauses Lit/Cl |          |
===============================================================================
|       100 |      99      448     1353 |      164      100      7 |  0.010 % |
===============================================================================
restarts              : 2
conflicts             : 150            (46714 /sec)
decisions             : 197            (0.00 % random) (61352 /sec)
propagations          : 3626           (1129243 /sec)
conflict literals     : 1047           (17.56 % deleted)
Memory used           : 13.00 MB
CPU time              : 0.003211 s

SATISFIABLE
